experiment/data/lkh-res/Vrp-Set-X-n190/Vrp-Set-X-n190-lkh/0.lkh1.vrp
NAME : 0
COMMENT : CVRP Instance
TYPE : CVRP
DIMENSION : 190
EDGE_WEIGHT_TYPE : EUC_2D
CAPACITY : 138
NODE_COORD_SECTION
1	0	0
2	42500	32300
3	80600	51400
4	85300	63700
5	56400	31100
6	87100	50200
7	80300	52600
8	82200	68000
9	82700	57700
10	83400	64600
11	63600	40300
12	69900	72400
13	83000	47900
14	48600	25700
15	41100	38400
16	88100	64200
17	42400	42200
18	80700	71800
19	94900	61200
20	36200	13500
21	83600	66200
22	79100	57000
23	82200	50800
24	79400	62200
25	82300	46400
26	80300	36700
27	39000	50200
28	86800	65100
29	73200	45600
30	35600	25300
31	79400	48100
32	35600	31200
33	99400	67600
34	81700	65800
35	59100	33300
36	77600	53200
37	81100	50900
38	29800	24600
39	81300	51700
40	79300	48800
41	94400	65500
42	90100	55500
43	84700	59400
44	69600	42900
45	45400	30300
46	36900	33000
47	72100	53900
48	87400	50200
49	86000	56400
50	38100	50800
51	77300	57500
52	67100	57100
53	90100	48200
54	85200	67200
55	88700	57600
56	80500	60800
57	82800	57500
58	43400	17700
59	71500	45000
60	82700	62200
61	75700	74600
62	97700	64800
63	82600	59500
64	43900	21200
65	51400	18400
66	83600	66100
67	50300	22700
68	49900	44700
69	79200	56400
70	79100	59900
71	93200	58200
72	90400	48400
73	45300	36200
74	63600	37400
75	78100	63900
76	72300	59000
77	91100	61300
78	83400	51000
79	78600	44900
80	77200	73200
81	77600	46100
82	74900	53300
83	82500	88200
84	40100	27500
85	96500	59700
86	76000	47900
87	84100	50100
88	90100	53100
89	44300	31800
90	77100	51100
91	85400	61500
92	82100	63100
93	73400	53900
94	70500	57700
95	77300	57300
96	64600	32700
97	84200	63000
98	80600	43600
99	96000	57600
100	35000	33700
101	82800	58000
102	87600	50200
103	53200	33200
104	51800	38300
105	77000	50900
106	25100	300
107	26400	44500
108	81700	65500
109	49300	39500
110	77700	52200
111	52500	26300
112	79300	63200
113	71300	40300
114	81000	63300
115	83700	64900
116	75700	56100
117	76600	75000
118	41100	54400
119	31500	29300
120	36200	49000
121	48400	27500
122	75400	59000
123	73600	78400
124	91100	46100
125	88200	67100
126	84500	50600
127	89500	58200
128	45300	29800
129	58100	30000
130	47200	37200
131	82800	56900
132	29600	29800
133	76600	64200
134	46100	36000
135	77100	65700
136	72700	55300
137	88300	40000
138	85300	52700
139	74800	46600
140	44700	36300
141	88400	71600
142	95300	57300
143	74800	49900
144	81800	42400
145	76100	55900
146	75400	55100
147	91500	52100
148	80200	46200
149	99700	50200
150	41100	33300
151	79700	46600
152	87300	54300
153	90200	53400
154	98100	61400
155	84300	69500
156	79600	70100
157	45900	37800
158	68100	62700
159	78100	61600
160	72600	47400
161	40700	30200
162	78200	64400
163	83200	66700
164	57500	29600
165	78800	61900
166	43000	31300
167	59300	54800
168	94500	40000
169	49000	28700
170	77200	44900
171	41900	44800
172	49900	25600
173	42700	24500
174	72000	62500
175	87100	55500
176	70100	70300
177	85900	49600
178	92500	47600
179	79000	58500
180	81100	59100
181	99100	63700
182	90200	56900
183	40500	29800
184	86100	38900
185	39400	30600
186	94200	61100
187	91200	52800
188	87600	66300
189	39900	12600
190	85000	69600
DEMAND_SECTION
1	0
2	3
3	7
4	2
5	4
6	3
7	2
8	4
9	1
10	6
11	6
12	9
13	2
14	4
15	1
16	8
17	4
18	2
19	5
20	4
21	9
22	10
23	8
24	1
25	8
26	5
27	7
28	10
29	3
30	3
31	9
32	1
33	3
34	9
35	6
36	5
37	7
38	8
39	6
40	5
41	4
42	10
43	8
44	5
45	7
46	5
47	6
48	2
49	1
50	3
51	6
52	2
53	3
54	4
55	1
56	7
57	3
58	5
59	10
60	5
61	9
62	1
63	8
64	6
65	3
66	2
67	8
68	1
69	4
70	4
71	9
72	5
73	4
74	4
75	5
76	4
77	9
78	6
79	1
80	10
81	10
82	9
83	3
84	3
85	10
86	10
87	8
88	4
89	7
90	7
91	6
92	8
93	7
94	6
95	7
96	2
97	3
98	9
99	9
100	10
101	4
102	5
103	1
104	8
105	6
106	5
107	1
108	5
109	7
110	1
111	7
112	6
113	6
114	8
115	4
116	8
117	9
118	3
119	1
120	7
121	5
122	1
123	10
124	7
125	5
126	2
127	8
128	5
129	6
130	7
131	7
132	3
133	5
134	2
135	4
136	10
137	3
138	2
139	4
140	8
141	10
142	3
143	7
144	6
145	3
146	8
147	4
148	6
149	10
150	4
151	10
152	1
153	1
154	5
155	9
156	4
157	3
158	10
159	3
160	9
161	7
162	6
163	8
164	10
165	7
166	10
167	10
168	6
169	1
170	1
171	1
172	4
173	8
174	4
175	10
176	5
177	4
178	7
179	10
180	9
181	1
182	6
183	9
184	3
185	8
186	5
187	9
188	8
189	1
190	5
DEPOT_SECTION
1
-1
EOF
