experiment/data/lkh-res/Vrp-Set-X-n190/Vrp-Set-X-n190-lkh/0.lkh1.tour
NAME : 0.1731330.tour
COMMENT : Length = 1731330
COMMENT : Found by LKH-3 [Keld Helsgaun] Tue Apr  9 03:46:12 2024
TYPE : TOUR
DIMENSION : 197
TOUR_SECTION
1
20
64
173
128
45
89
166
161
183
185
38
191
32
15
68
52
94
76
122
159
165
24
114
92
60
97
10
115
66
21
163
108
34
8
156
18
80
117
61
176
171
192
121
170
79
25
13
147
187
88
153
42
182
71
142
99
85
154
181
62
33
41
19
186
77
127
55
49
175
152
138
193
103
11
86
40
37
3
39
23
78
87
126
177
6
48
102
53
72
124
178
149
168
137
184
26
65
189
106
197
169
7
131
57
9
101
180
63
43
91
4
28
16
188
125
54
155
190
141
83
123
12
17
119
194
132
100
46
150
140
73
157
109
167
136
116
51
95
145
146
82
93
47
104
130
134
2
195
14
172
5
35
74
44
59
29
139
81
31
151
148
98
144
113
96
129
164
111
67
58
196
30
84
160
143
105
90
110
36
69
22
179
70
56
112
75
162
135
133
174
158
118
27
50
120
107
-1
EOF
